1161.0 13336.0 3144.0 
1196.0 13224.0 3154.0 
1183.0 13232.0 3049.0 
1196.0 13231.0 3048.0 
1155.0 13541.0 3361.0 
1162.0 13263.0 3298.0 
1179.0 13507.0 3083.0 
1162.0 13263.0 3298.0 
1184.0 13232.0 2979.0 
1173.0 13171.0 3176.0 
1180.0 13234.0 2974.0 
1179.0 13481.0 3087.0 
1184.0 13228.0 3058.0 
1157.0 13429.0 3256.0 
1138.0 13328.0 3446.0 
1198.0 13171.0 2965.0 
1211.0 13221.0 2776.0 
1162.0 13290.0 3194.0 
1126.0 13774.0 3666.0 
1253.0 13167.0 2892.0 
1123.0 13961.0 4097.0 
1169.0 13230.0 3429.0 
1198.0 13220.0 2923.0 
